p cnf 66 206
3 -1 0
3 -2 0
1 2 -3 0
6 -4 0
6 -5 0
4 5 -6 0
3 6 -7 0
-3 -6 -7 0
3 -6 7 0
-3 6 7 0
9 -1 0
9 -8 0
1 8 -9 0
-7 9 -10 0
7 -9 -10 0
-7 -9 10 0
7 9 10 0
14 -5 0
14 13 0
5 -13 -14 0
-15 -12 0
-15 14 0
12 -14 15 0
16 -11 0
16 15 0
11 -15 -16 0
17 16 0
17 -11 0
-16 11 -17 0
18 -10 0
18 17 0
10 -17 -18 0
-20 11 0
-20 19 0
-11 -19 20 0
-20 -1 -21 0
20 1 -21 0
-20 1 21 0
20 -1 21 0
-22 -4 0
-22 -14 0
4 14 22 0
-2 -22 -23 0
2 22 -23 0
-2 22 23 0
2 -22 23 0
-24 23 0
-24 -19 0
-23 19 24 0
21 24 -25 0
-21 -24 -25 0
21 -24 25 0
-21 24 25 0
-26 12 0
-26 -12 0
27 26 0
27 4 0
-26 -4 -27 0
-29 -27 0
-29 -28 0
27 28 29 0
30 -2 0
30 -8 0
2 8 -30 0
32 -31 0
32 20 0
31 -20 -32 0
-19 -32 -33 0
19 32 -33 0
-19 32 33 0
19 -32 33 0
-34 30 0
-34 -33 0
-30 33 34 0
-29 34 -35 0
29 -34 -35 0
-29 -34 35 0
29 34 35 0
-36 -25 0
-36 35 0
25 -35 36 0
39 37 0
39 38 0
-37 -38 -39 0
-19 -39 -40 0
19 39 -40 0
-19 39 40 0
19 -39 40 0
-42 12 0
-42 41 0
-12 -41 42 0
43 -22 0
43 -37 0
22 37 -43 0
44 -43 0
44 5 0
43 -5 -44 0
-45 44 0
-45 -20 0
-44 20 45 0
-4 -13 -46 0
4 13 -46 0
-4 13 46 0
4 -13 46 0
45 46 -47 0
-45 -46 -47 0
45 -46 47 0
-45 46 47 0
42 47 -48 0
-42 -47 -48 0
42 -47 48 0
-42 47 48 0
49 40 0
49 48 0
-40 -48 -49 0
50 -44 0
50 -2 0
44 2 -50 0
51 -50 0
51 50 0
-51 -45 -52 0
51 45 -52 0
-51 45 52 0
51 -45 52 0
52 -26 -53 0
-52 26 -53 0
52 26 53 0
-52 -26 53 0
54 -53 0
54 39 0
53 -39 -54 0
55 -41 0
55 -12 0
41 12 -55 0
56 -23 0
56 -5 0
23 5 -56 0
57 -55 0
57 56 0
55 -56 -57 0
58 12 0
58 -31 0
-12 31 -58 0
32 -58 -59 0
-32 58 -59 0
32 58 59 0
-32 -58 59 0
57 59 -60 0
-57 -59 -60 0
57 -59 60 0
-57 59 60 0
61 54 0
61 -60 0
-54 60 -61 0
-62 -49 0
-62 -61 0
49 61 62 0
-36 62 -63 0
36 -62 -63 0
-36 -62 63 0
36 62 63 0
64 -38 0
64 -12 0
38 12 -64 0
65 63 0
65 64 0
-63 -64 -65 0
-18 65 -66 0
18 -65 -66 0
-18 -65 66 0
18 65 66 0
60 58 56 0
54 -60 59 11 -21 0
15 -63 16 -45 12 0
3 -64 0
-55 48 0
39 -13 66 -19 -23 0
-58 -4 -66 25 -53 -38 0
-33 12 -58 0
-9 47 -7 -20 -26 -48 0
51 -37 55 15 -27 0
-13 15 0
30 -24 36 0
-12 -31 37 -65 -33 0
-37 19 43 0
-62 22 15 -10 40 0
52 40 26 -54 49 -66 0
39 -44 -28 0
-22 -3 -30 66 55 47 0
41 -36 0
57 39 -47 -42 -1 0
-25 34 -15 53 0
2 63 -4 0
56 41 17 -26 32 0
-4 -1 0
46 10 0
42 52 64 0
15 -57 37 46 0
18 12 -62 19 0
54 15 0
-40 -26 4 63 -57 0
54 1 24 12 0
-57 42 26 0
44 -56 -43 40 64 -62 0
-31 39 61 -24 -52 0
66 0
